# Solution for model PD-Stages
# Objective value = 25.6462531917262
zigjg[101,102,4] 1
zigjg[101,203,4] 0
zigjg[101,303,4] 0
zigjg[101,304,4] 0
zigjg[101,405,4] 0
zigjg[101,505,4] 0
zigjg[101,506,4] 0
zigjg[101,607,4] 0
zigjg[101,707,4] 0
zigjg[101,708,4] 0
zigjg[101,809,4] 0
zigjg[101,909,4] 0
zigjg[102,101,4] 0
zigjg[102,203,4] 0
zigjg[102,303,4] 0
zigjg[102,304,4] 1
zigjg[102,405,4] 0
zigjg[102,505,4] 0
zigjg[102,506,4] 0
zigjg[102,607,4] 0
zigjg[102,707,4] 0
zigjg[102,708,4] 0
zigjg[102,809,4] 0
zigjg[102,909,4] 0
zigjg[203,101,4] 1
zigjg[203,102,4] 0
zigjg[203,303,4] 0
zigjg[203,304,4] 0
zigjg[203,405,4] 0
zigjg[203,505,4] 0
zigjg[203,506,4] 0
zigjg[203,607,4] 0
zigjg[203,707,4] 0
zigjg[203,708,4] 0
zigjg[203,809,4] 0
zigjg[203,909,4] 0
zigjg[303,101,4] 0
zigjg[303,102,4] 0
zigjg[303,203,4] 1
zigjg[303,304,4] 0
zigjg[303,405,4] 0
zigjg[303,505,4] 0
zigjg[303,506,4] 0
zigjg[303,607,4] 0
zigjg[303,707,4] 0
zigjg[303,708,4] 0
zigjg[303,809,4] 0
zigjg[303,909,4] 0
zigjg[304,101,4] 0
zigjg[304,102,4] 0
zigjg[304,203,4] 0
zigjg[304,303,4] 0
zigjg[304,405,4] 0
zigjg[304,505,4] 0
zigjg[304,506,4] 0
zigjg[304,607,4] 1
zigjg[304,707,4] 0
zigjg[304,708,4] 0
zigjg[304,809,4] 0
zigjg[304,909,4] 0
zigjg[405,101,4] 0
zigjg[405,102,4] 0
zigjg[405,203,4] 0
zigjg[405,303,4] 0
zigjg[405,304,4] 0
zigjg[405,505,4] 1
zigjg[405,506,4] 0
zigjg[405,607,4] 0
zigjg[405,707,4] 0
zigjg[405,708,4] 0
zigjg[405,809,4] 0
zigjg[405,909,4] 0
zigjg[505,101,4] 0
zigjg[505,102,4] 0
zigjg[505,203,4] 0
zigjg[505,303,4] 0
zigjg[505,304,4] 0
zigjg[505,405,4] 0
zigjg[505,506,4] 0
zigjg[505,607,4] 0
zigjg[505,707,4] 1
zigjg[505,708,4] 0
zigjg[505,809,4] 0
zigjg[505,909,4] 0
zigjg[506,101,4] 0
zigjg[506,102,4] 0
zigjg[506,203,4] 0
zigjg[506,303,4] 1
zigjg[506,304,4] 0
zigjg[506,405,4] 0
zigjg[506,505,4] 0
zigjg[506,607,4] 0
zigjg[506,707,4] 0
zigjg[506,708,4] 0
zigjg[506,809,4] 0
zigjg[506,909,4] 0
zigjg[607,101,4] 0
zigjg[607,102,4] 0
zigjg[607,203,4] 0
zigjg[607,303,4] 0
zigjg[607,304,4] 0
zigjg[607,405,4] 1
zigjg[607,505,4] 0
zigjg[607,506,4] 0
zigjg[607,707,4] 0
zigjg[607,708,4] 0
zigjg[607,809,4] 0
zigjg[607,909,4] 0
zigjg[707,101,4] 0
zigjg[707,102,4] 0
zigjg[707,203,4] 0
zigjg[707,303,4] 0
zigjg[707,304,4] 0
zigjg[707,405,4] 0
zigjg[707,505,4] 0
zigjg[707,506,4] 0
zigjg[707,607,4] 0
zigjg[707,708,4] 0
zigjg[707,809,4] 1
zigjg[707,909,4] 0
zigjg[708,101,4] 0
zigjg[708,102,4] 0
zigjg[708,203,4] 0
zigjg[708,303,4] 0
zigjg[708,304,4] 0
zigjg[708,405,4] 0
zigjg[708,505,4] 0
zigjg[708,506,4] 1
zigjg[708,607,4] 0
zigjg[708,707,4] 0
zigjg[708,809,4] 0
zigjg[708,909,4] 0
zigjg[809,101,4] 0
zigjg[809,102,4] 0
zigjg[809,203,4] 0
zigjg[809,303,4] 0
zigjg[809,304,4] 0
zigjg[809,405,4] 0
zigjg[809,505,4] 0
zigjg[809,506,4] 0
zigjg[809,607,4] 0
zigjg[809,707,4] 0
zigjg[809,708,4] 0
zigjg[809,909,4] 1
zigjg[909,101,4] 0
zigjg[909,102,4] 0
zigjg[909,203,4] 0
zigjg[909,303,4] 0
zigjg[909,304,4] 0
zigjg[909,405,4] 0
zigjg[909,505,4] 0
zigjg[909,506,4] 0
zigjg[909,607,4] 0
zigjg[909,707,4] 0
zigjg[909,708,4] 1
zigjg[909,809,4] 0
sig[101,4] 0
sig[102,4] 1
sig[203,4] 12
sig[303,4] 11
sig[304,4] 2
sig[405,4] 4
sig[505,4] 5
sig[506,4] 10
sig[607,4] 3
sig[707,4] 6
sig[708,4] 9
sig[809,4] 7
sig[909,4] 8
digjg[101,102,4] 2.7834762784034872e-09
digjg[101,203,4] 10000
digjg[101,303,4] 10000
digjg[101,304,4] 10000
digjg[101,405,4] 10000
digjg[101,505,4] 10000
digjg[101,506,4] 10000
digjg[101,607,4] 10000
digjg[101,707,4] 10000
digjg[101,708,4] 10000
digjg[101,809,4] 10000
digjg[101,909,4] 10000
digjg[102,101,4] 10000
digjg[102,203,4] 10000
digjg[102,303,4] 10000
digjg[102,304,4] 5.2832533200525911e-01
digjg[102,405,4] 10000
digjg[102,505,4] 10000
digjg[102,506,4] 10000
digjg[102,607,4] 10000
digjg[102,707,4] 10000
digjg[102,708,4] 10000
digjg[102,809,4] 10000
digjg[102,909,4] 10000
digjg[203,101,4] 5.0228550733022807e-09
digjg[203,102,4] 10000
digjg[203,303,4] 10000
digjg[203,304,4] 10000
digjg[203,405,4] 10000
digjg[203,505,4] 10000
digjg[203,506,4] 10000
digjg[203,607,4] 10000
digjg[203,707,4] 10000
digjg[203,708,4] 10000
digjg[203,809,4] 10000
digjg[203,909,4] 10000
digjg[303,101,4] 10000
digjg[303,102,4] 10000
digjg[303,203,4] 2.0607691863813053e-09
digjg[303,304,4] 10000
digjg[303,405,4] 10000
digjg[303,505,4] 10000
digjg[303,506,4] 10000
digjg[303,607,4] 10000
digjg[303,707,4] 10000
digjg[303,708,4] 10000
digjg[303,809,4] 10000
digjg[303,909,4] 10000
digjg[304,101,4] 10000
digjg[304,102,4] 10000
digjg[304,203,4] 10000
digjg[304,303,4] 10000
digjg[304,405,4] 10000
digjg[304,505,4] 10000
digjg[304,506,4] 10000
digjg[304,607,4] 5.92186628566876
digjg[304,707,4] 10000
digjg[304,708,4] 10000
digjg[304,809,4] 10000
digjg[304,909,4] 10000
digjg[405,101,4] 10000
digjg[405,102,4] 10000
digjg[405,203,4] 10000
digjg[405,303,4] 10000
digjg[405,304,4] 10000
digjg[405,505,4] 1.0156674183920544e-01
digjg[405,506,4] 10000
digjg[405,607,4] 10000
digjg[405,707,4] 10000
digjg[405,708,4] 10000
digjg[405,809,4] 10000
digjg[405,909,4] 10000
digjg[505,101,4] 10000
digjg[505,102,4] 10000
digjg[505,203,4] 10000
digjg[505,303,4] 10000
digjg[505,304,4] 10000
digjg[505,405,4] 10000
digjg[505,506,4] 10000
digjg[505,607,4] 10000
digjg[505,707,4] 1.4288757472474822e+00
digjg[505,708,4] 10000
digjg[505,809,4] 10000
digjg[505,909,4] 10000
digjg[506,101,4] 10000
digjg[506,102,4] 10000
digjg[506,203,4] 10000
digjg[506,303,4] 1.2189244124834533e+00
digjg[506,304,4] 10000
digjg[506,405,4] 10000
digjg[506,505,4] 10000
digjg[506,607,4] 10000
digjg[506,707,4] 10000
digjg[506,708,4] 10000
digjg[506,809,4] 10000
digjg[506,909,4] 10000
digjg[607,101,4] 10000
digjg[607,102,4] 10000
digjg[607,203,4] 10000
digjg[607,303,4] 10000
digjg[607,304,4] 10000
digjg[607,405,4] 1.2256447295877e-09
digjg[607,505,4] 10000
digjg[607,506,4] 10000
digjg[607,707,4] 10000
digjg[607,708,4] 10000
digjg[607,809,4] 10000
digjg[607,909,4] 10000
digjg[707,101,4] 10000
digjg[707,102,4] 10000
digjg[707,203,4] 10000
digjg[707,303,4] 10000
digjg[707,304,4] 10000
digjg[707,405,4] 10000
digjg[707,505,4] 10000
digjg[707,506,4] 10000
digjg[707,607,4] 10000
digjg[707,708,4] 10000
digjg[707,809,4] 3.1126221278998750e-09
digjg[707,909,4] 10000
digjg[708,101,4] 10000
digjg[708,102,4] 10000
digjg[708,203,4] 10000
digjg[708,303,4] 10000
digjg[708,304,4] 10000
digjg[708,405,4] 10000
digjg[708,505,4] 10000
digjg[708,506,4] 1.2254090775155463e-09
digjg[708,607,4] 10000
digjg[708,707,4] 10000
digjg[708,809,4] 10000
digjg[708,909,4] 10000
digjg[809,101,4] 10000
digjg[809,102,4] 10000
digjg[809,203,4] 10000
digjg[809,303,4] 10000
digjg[809,304,4] 10000
digjg[809,405,4] 10000
digjg[809,505,4] 10000
digjg[809,506,4] 10000
digjg[809,607,4] 10000
digjg[809,707,4] 10000
digjg[809,708,4] 10000
digjg[809,909,4] 3.3784306238886304e-09
digjg[909,101,4] 10000
digjg[909,102,4] 10000
digjg[909,203,4] 10000
digjg[909,303,4] 10000
digjg[909,304,4] 10000
digjg[909,405,4] 10000
digjg[909,505,4] 10000
digjg[909,506,4] 10000
digjg[909,607,4] 10000
digjg[909,707,4] 10000
digjg[909,708,4] 2.4609189244259642e-09
digjg[909,809,4] 10000
difigjg[101,102,4,0] 2.4101758178751807e-09
difigjg[101,102,4,1] 1.1943618860559960e-09
difigjg[101,203,4,0] 5.1188992989392109e+03
difigjg[101,203,4,1] 3.8513040819193916e+03
difigjg[101,303,4,0] 5.1068236999042138e+03
difigjg[101,303,4,1] 3.8261201420124585e+03
difigjg[101,304,4,0] 4.3645014687385165e+03
difigjg[101,304,4,1] 4.1681737755227541e+03
difigjg[101,405,4,0] 5074.61067147801
difigjg[101,405,4,1] 4.0448121585791509e+03
difigjg[101,505,4,0] 5.1237859821620532e+03
difigjg[101,505,4,1] 3.8333563311113844e+03
difigjg[101,506,4,0] 4.3523643219389778e+03
difigjg[101,506,4,1] 4.1433068061296517e+03
difigjg[101,607,4,0] 4.3093671526818653e+03
difigjg[101,607,4,1] 4113.83376723898
difigjg[101,707,4,0] 5.2217581116060273e+03
difigjg[101,707,4,1] 3.7762202781557135e+03
difigjg[101,708,4,0] 4.3712696941683107e+03
difigjg[101,708,4,1] 4.1206105295333264e+03
difigjg[101,809,4,0] 5.0664327050473112e+03
difigjg[101,809,4,1] 4.0126642808367174e+03
difigjg[101,909,4,0] 5.2188311517220181e+03
difigjg[101,909,4,1] 3.7761383460255565e+03
difigjg[102,101,4,0] 4.2342404456285531e+03
difigjg[102,101,4,1] 4.8914450455403885e+03
difigjg[102,203,4,0] 4.2203208619476873e+03
difigjg[102,203,4,1] 4.8237640470956931e+03
difigjg[102,303,4,0] 4.9466780286804169e+03
difigjg[102,303,4,1] 4.7351478669256039e+03
difigjg[102,304,4,0] 1.6479826995637339e-01
difigjg[102,304,4,1] 0.501965166671159
difigjg[102,405,4,0] 4.2270811205825748e+03
difigjg[102,405,4,1] 4904.38648639451
difigjg[102,505,4,0] 4.9880012107283364e+03
difigjg[102,505,4,1] 3.9897689609741810e+03
difigjg[102,506,4,0] 4.9968224784683052e+03
difigjg[102,506,4,1] 3.9941593889156729e+03
difigjg[102,607,4,0] 4386.86607485365
difigjg[102,607,4,1] 4.0319185453046343e+03
difigjg[102,707,4,0] 5.1915499389104825e+03
difigjg[102,707,4,1] 3.8805636557700150e+03
difigjg[102,708,4,0] 4.9799488714953268e+03
difigjg[102,708,4,1] 3.9986349024671440e+03
difigjg[102,809,4,0] 4.3449921284641032e+03
difigjg[102,809,4,1] 4.1210454003357954e+03
difigjg[102,909,4,0] 5.1977811723215345e+03
difigjg[102,909,4,1] 3.8746809743384060e+03
difigjg[203,101,4,0] 3.9334793245483070e-09
difigjg[203,101,4,1] 2.9502297476450321e-09
difigjg[203,102,4,0] 4.2115484346914318e+03
difigjg[203,102,4,1] 4867.86296460495
difigjg[203,303,4,0] 4.3691001087269469e+03
difigjg[203,303,4,1] 4.1129705902741189e+03
difigjg[203,304,4,0] 4.1809374818880988e+03
difigjg[203,304,4,1] 4.1590949217323114e+03
difigjg[203,405,4,0] 4.9607513606158182e+03
difigjg[203,405,4,1] 4.0452385425460061e+03
difigjg[203,505,4,0] 4.9942744272752561e+03
difigjg[203,505,4,1] 4.0209300173467605e+03
difigjg[203,506,4,0] 4.1648013133267841e+03
difigjg[203,506,4,1] 4.1935274812960461e+03
difigjg[203,607,4,0] 4.2891676815152277e+03
difigjg[203,607,4,1] 4.0977758247997135e+03
difigjg[203,707,4,0] 5.1535408328892663e+03
difigjg[203,707,4,1] 3.9315999951475874e+03
difigjg[203,708,4,0] 4.1845825423837778e+03
difigjg[203,708,4,1] 4.2224168792978035e+03
difigjg[203,809,4,0] 4.9029015483970616e+03
difigjg[203,809,4,1] 4108.85563550428
difigjg[203,909,4,0] 5.1581977801627954e+03
difigjg[203,909,4,1] 3.9335091958193443e+03
difigjg[303,101,4,0] 5.1034470579289828e+03
difigjg[303,101,4,1] 3.8318932342020521e+03
difigjg[303,102,4,0] 4.9440845607485708e+03
difigjg[303,102,4,1] 4.7438509707810781e+03
difigjg[303,203,4,0] 1.7762712112999709e-09
difigjg[303,203,4,1] 8.03371541662636e-10
difigjg[303,304,4,0] 5.0870338598705830e+03
difigjg[303,304,4,1] 4.0251237154093569e+03
difigjg[303,405,4,0] 4.2955193946098580e+03
difigjg[303,405,4,1] 4.8738826559164863e+03
difigjg[303,505,4,0] 5.1050650119777865e+03
difigjg[303,505,4,1] 3.8281517317561365e+03
difigjg[303,506,4,0] 5.0720104379545455e+03
difigjg[303,506,4,1] 3.9992298809929680e+03
difigjg[303,607,4,0] 4.4502701546989929e+03
difigjg[303,607,4,1] 4.0754602866536716e+03
difigjg[303,707,4,0] 5.2087041208659521e+03
difigjg[303,707,4,1] 3.7765860157595739e+03
difigjg[303,708,4,0] 5.0616511550005816e+03
difigjg[303,708,4,1] 3.9838865529740692e+03
difigjg[303,809,4,0] 4.4090236060665929e+03
difigjg[303,809,4,1] 4.1303261245982239e+03
difigjg[303,909,4,0] 5.2057862206027366e+03
difigjg[303,909,4,1] 3.7841996431504854e+03
difigjg[304,101,4,0] 4.3302534542827780e+03
difigjg[304,101,4,1] 4.1605531923253429e+03
difigjg[304,102,4,0] 5.0191387662467068e+03
difigjg[304,102,4,1] 3.9632782811041852e+03
difigjg[304,203,4,0] 4.1814961899408663e+03
difigjg[304,203,4,1] 4.1318462398783477e+03
difigjg[304,303,4,0] 5.0840395932158381e+03
difigjg[304,303,4,1] 4.0138988278188185e+03
difigjg[304,405,4,0] 4.1373750799496229e+03
difigjg[304,405,4,1] 4.9225306735697714e+03
difigjg[304,505,4,0] 4.2635761372399347e+03
difigjg[304,505,4,1] 4.1704984330027783e+03
difigjg[304,506,4,0] 4.9398061301432781e+03
difigjg[304,506,4,1] 4.0853864184326508e+03
difigjg[304,607,4,0] 5.6785430133483290e+00
difigjg[304,607,4,1] 1.6800742502333397e+00
difigjg[304,707,4,0] 5.1530899902721867e+03
difigjg[304,707,4,1] 3.9653860417960627e+03
difigjg[304,708,4,0] 4.9436945338196883e+03
difigjg[304,708,4,1] 4.0807627716792922e+03
difigjg[304,809,4,0] 4.1930730623398968e+03
difigjg[304,809,4,1] 4.2115475149730873e+03
difigjg[304,909,4,0] 4.6272908969888676e+03
difigjg[304,909,4,1] 4.0721986273370017e+03
difigjg[405,101,4,0] 5.0638772482620534e+03
difigjg[405,101,4,1] 4.0671763561498210e+03
difigjg[405,102,4,0] 4.2408924447244681e+03
difigjg[405,102,4,1] 4.9032447660974185e+03
difigjg[405,203,4,0] 4.9478542983345778e+03
difigjg[405,203,4,1] 4.0546958053583558e+03
difigjg[405,303,4,0] 4.2799177739401894e+03
difigjg[405,303,4,1] 4.8773921245153615e+03
difigjg[405,304,4,0] 4.1628467091853463e+03
difigjg[405,304,4,1] 4.9130429864559974e+03
difigjg[405,505,4,0] 6.9479576947608659e-02
difigjg[405,505,4,1] 7.4083678158460259e-02
difigjg[405,506,4,0] 4.1637351390390913e+03
difigjg[405,506,4,1] 4.9347056785745017e+03
difigjg[405,607,4,0] 4.9856239551998660e+03
difigjg[405,607,4,1] 3.9785102650307090e+03
difigjg[405,707,4,0] 5.1906157672767840e+03
difigjg[405,707,4,1] 3.8974890665500366e+03
difigjg[405,708,4,0] 4.3026837214855514e+03
difigjg[405,708,4,1] 4.1159468660385746e+03
difigjg[405,809,4,0] 4.9755591147773594e+03
difigjg[405,809,4,1] 4.0234661699202575e+03
difigjg[405,909,4,0] 5.1874067981339722e+03
difigjg[405,909,4,1] 3.8868024587295231e+03
difigjg[505,101,4,0] 5.1335751720842245e+03
difigjg[505,101,4,1] 3.8253974190635608e+03
difigjg[505,102,4,0] 4.9935161629858121e+03
difigjg[505,102,4,1] 3.9733061545370383e+03
difigjg[505,203,4,0] 4.9936647083586868e+03
difigjg[505,203,4,1] 4.0009053270944532e+03
difigjg[505,303,4,0] 5.1185943657294692e+03
difigjg[505,303,4,1] 3.8297393885835450e+03
difigjg[505,304,4,0] 4.2409437178205071e+03
difigjg[505,304,4,1] 4.1636543506365733e+03
difigjg[505,405,4,0] 4.8718376299954962e+03
difigjg[505,405,4,1] 4.7705866945203143e+03
difigjg[505,506,4,0] 4.1218647204816125e+03
difigjg[505,506,4,1] 4.9224321927735027e+03
difigjg[505,607,4,0] 5.0059495125710346e+03
difigjg[505,607,4,1] 4.0066678345683176e+03
difigjg[505,707,4,0] 9.7726162101826231e-01
difigjg[505,707,4,1] 1.0424228583808344e+00
difigjg[505,708,4,0] 4.9924611923766424e+03
difigjg[505,708,4,1] 4.0260770805744633e+03
difigjg[505,809,4,0] 4993.78498228825
difigjg[505,809,4,1] 4.0478019180546316e+03
difigjg[505,909,4,0] 5.2222804802735254e+03
difigjg[505,909,4,1] 3.7750271380016975e+03
difigjg[506,101,4,0] 4.3186255197387209e+03
difigjg[506,101,4,1] 4.1763035388561157e+03
difigjg[506,102,4,0] 4.9969032924414241e+03
difigjg[506,102,4,1] 4.0115666525976958e+03
difigjg[506,203,4,0] 4.1596737452794141e+03
difigjg[506,203,4,1] 4.2311306404636707e+03
difigjg[506,303,4,0] 7.7662337629506906e-01
difigjg[506,303,4,1] 0.9394854044529
difigjg[506,304,4,0] 4.9373988474509479e+03
difigjg[506,304,4,1] 4.0979259845673205e+03
difigjg[506,405,4,0] 4.1467474470204725e+03
difigjg[506,405,4,1] 4.9321270525023183e+03
difigjg[506,505,4,0] 4157.05913599075
difigjg[506,505,4,1] 4.9055519769080038e+03
difigjg[506,607,4,0] 4.1716486164932749e+03
difigjg[506,607,4,1] 4.8894579345248831e+03
difigjg[506,707,4,0] 5.0460883585263746e+03
difigjg[506,707,4,1] 4.6741332564695913e+03
difigjg[506,708,4,0] 4.9556513896480383e+03
difigjg[506,708,4,1] 4.0399618349089437e+03
difigjg[506,809,4,0] 4.0983950762059421e+03
difigjg[506,809,4,1] 4946.16506988237
difigjg[506,909,4,0] 4.6787292881369858e+03
difigjg[506,909,4,1] 4.0265782998186592e+03
difigjg[607,101,4,0] 4.3091713820968916e+03
difigjg[607,101,4,1] 4.1483142692982510e+03
difigjg[607,102,4,0] 4.3696198298949657e+03
difigjg[607,102,4,1] 4.0692172425231443e+03
difigjg[607,203,4,0] 4.2380110031280510e+03
difigjg[607,203,4,1] 4.1316824045972453e+03
difigjg[607,303,4,0] 4.3929666685744878e+03
difigjg[607,303,4,1] 4.1255337876835438e+03
difigjg[607,304,4,0] 4.2432039345661569e+03
difigjg[607,304,4,1] 4159.2739704223
difigjg[607,405,4,0] 7.4351811677873353e-10
difigjg[607,405,4,1] 8.3027465180503683e-10
difigjg[607,505,4,0] 4.9993326546766593e+03
difigjg[607,505,4,1] 4.0402991875449670e+03
difigjg[607,506,4,0] 4.1228653552877313e+03
difigjg[607,506,4,1] 4.9289665848751119e+03
difigjg[607,707,4,0] 4.3058331636287521e+03
difigjg[607,707,4,1] 4.1593217632439846e+03
difigjg[607,708,4,0] 4.2411169012424343e+03
difigjg[607,708,4,1] 4.1775004418970793e+03
difigjg[607,809,4,0] 4.2375367315487538e+03
difigjg[607,809,4,1] 4.1953363551852062e+03
difigjg[607,909,4,0] 4122.37612981978
difigjg[607,909,4,1] 4.1736137256756783e+03
difigjg[707,101,4,0] 5.2224024417986338e+03
difigjg[707,101,4,1] 3.7778168178472338e+03
difigjg[707,102,4,0] 5.1898937588928638e+03
difigjg[707,102,4,1] 3.8707460728095512e+03
difigjg[707,203,4,0] 5.1571887909668021e+03
difigjg[707,203,4,1] 3.9219569500471766e+03
difigjg[707,303,4,0] 5.1989400554157410e+03
difigjg[707,303,4,1] 3.7831074749759641e+03
difigjg[707,304,4,0] 5.1538536077657536e+03
difigjg[707,304,4,1] 3.9533932111132358e+03
difigjg[707,405,4,0] 5.1689747099817650e+03
difigjg[707,405,4,1] 3.9340034135714991e+03
difigjg[707,505,4,0] 5.2397018280673856e+03
difigjg[707,505,4,1] 3.7823251622048024e+03
difigjg[707,506,4,0] 5.0397527666088617e+03
difigjg[707,506,4,1] 4.6848833066920806e+03
difigjg[707,607,4,0] 4.3311068281377429e+03
difigjg[707,607,4,1] 4.1762558583243426e+03
difigjg[707,708,4,0] 5.1574124934123856e+03
difigjg[707,708,4,1] 3.9426094021583108e+03
difigjg[707,809,4,0] 1.4687232142375759e-09
difigjg[707,809,4,1] 2.6229109880524633e-09
difigjg[707,909,4,0] 5.1889533934154824e+03
difigjg[707,909,4,1] 3.7875464781931892e+03
difigjg[708,101,4,0] 4.3007987833367315e+03
difigjg[708,101,4,1] 4.1644720094953091e+03
difigjg[708,102,4,0] 4.9807972501726263e+03
difigjg[708,102,4,1] 4.0170107953522256e+03
difigjg[708,203,4,0] 4.1433770602021623e+03
difigjg[708,203,4,1] 4.2807554674773082e+03
difigjg[708,303,4,0] 5046.62996555292
difigjg[708,303,4,1] 4.0163836729847571e+03
difigjg[708,304,4,0] 4.9313589641133321e+03
difigjg[708,304,4,1] 4.0983800782079970e+03
difigjg[708,405,4,0] 4.2213759028180430e+03
difigjg[708,405,4,1] 4.1783815223136835e+03
difigjg[708,505,4,0] 4.9896655480629261e+03
difigjg[708,505,4,1] 4.0511512664126026e+03
difigjg[708,506,4,0] 7.6348368096112554e-10
difigjg[708,506,4,1] 8.1086189110523125e-10
difigjg[708,607,4,0] 4.2410826092670786e+03
difigjg[708,607,4,1] 4.2245422763135712e+03
difigjg[708,707,4,0] 5.1507022916665255e+03
difigjg[708,707,4,1] 3.9733880225122889e+03
difigjg[708,809,4,0] 4.0749796758708294e+03
difigjg[708,809,4,1] 4.9536341607914073e+03
difigjg[708,909,4,0] 4.5242310047032424e+03
difigjg[708,909,4,1] 4804.20011488166
difigjg[809,101,4,0] 5.0634475233763478e+03
difigjg[809,101,4,1] 4.0085964080742410e+03
difigjg[809,102,4,0] 4.3524103889372964e+03
difigjg[809,102,4,1] 4.1049984679991712e+03
difigjg[809,203,4,0] 4.8690445998875857e+03
difigjg[809,203,4,1] 4.1039760859201788e+03
difigjg[809,303,4,0] 4.3858739686410454e+03
difigjg[809,303,4,1] 4.1321784815083211e+03
difigjg[809,304,4,0] 4.1918799225509529e+03
difigjg[809,304,4,1] 4.1927996513356711e+03
difigjg[809,405,4,0] 4.9626219483606556e+03
difigjg[809,405,4,1] 4.0419707889650085e+03
difigjg[809,505,4,0] 4.9712147158519274e+03
difigjg[809,505,4,1] 4.0506068758786751e+03
difigjg[809,506,4,0] 4.0952410302264525e+03
difigjg[809,506,4,1] 4.9485894847743812e+03
difigjg[809,607,4,0] 4.2648055840235511e+03
difigjg[809,607,4,1] 4.2032759105723835e+03
difigjg[809,707,4,0] 5.0427993089623051e+03
difigjg[809,707,4,1] 4.6838144559539041e+03
difigjg[809,708,4,0] 4.1229008132001218e+03
difigjg[809,708,4,1] 4.9451074317298844e+03
difigjg[809,909,4,0] 2.7681649674825561e-09
difigjg[809,909,4,1] 1.7375701716042359e-09
difigjg[909,101,4,0] 5.2330384104466621e+03
difigjg[909,101,4,1] 3.7719308765998808e+03
difigjg[909,102,4,0] 5.2056344453936026e+03
difigjg[909,102,4,1] 3.8613030138209469e+03
difigjg[909,203,4,0] 5.1642414485597919e+03
difigjg[909,203,4,1] 3926.16416840351
difigjg[909,303,4,0] 5.2053587839486117e+03
difigjg[909,303,4,1] 3.7855886742846369e+03
difigjg[909,304,4,0] 4.6421493210124236e+03
difigjg[909,304,4,1] 4.0557921014637882e+03
difigjg[909,405,4,0] 5176.44473316946
difigjg[909,405,4,1] 3.9186309301925066e+03
difigjg[909,505,4,0] 5231.95906257802
difigjg[909,505,4,1] 3.7710892883472079e+03
difigjg[909,506,4,0] 4.6639528842314476e+03
difigjg[909,506,4,1] 4.0669566639857226e+03
difigjg[909,607,4,0] 4.1236088046939149e+03
difigjg[909,607,4,1] 4.1936801104418655e+03
difigjg[909,707,4,0] 5.1854370602108747e+03
difigjg[909,707,4,1] 3787.22397822744
difigjg[909,708,4,0] 2.1213891537244233e-09
difigjg[909,708,4,1] 1.0342896456625844e-09
difigjg[909,809,4,0] 4.1305280504954317e+03
difigjg[909,809,4,1] 4.1585931038290419e+03
pigjg[101,102,4] 2.7834762784034872e-09
pigjg[101,203,4] 0
pigjg[101,303,4] 0
pigjg[101,304,4] 0
pigjg[101,405,4] 0
pigjg[101,505,4] 0
pigjg[101,506,4] 0
pigjg[101,607,4] 0
pigjg[101,707,4] 0
pigjg[101,708,4] 0
pigjg[101,809,4] 0
pigjg[101,909,4] 0
pigjg[102,101,4] 0
pigjg[102,203,4] 0
pigjg[102,303,4] 0
pigjg[102,304,4] 5.2832533200525911e-01
pigjg[102,405,4] 0
pigjg[102,505,4] 0
pigjg[102,506,4] 0
pigjg[102,607,4] 0
pigjg[102,707,4] 0
pigjg[102,708,4] 0
pigjg[102,809,4] 0
pigjg[102,909,4] 0
pigjg[203,101,4] 5.0228550733022807e-09
pigjg[203,102,4] 0
pigjg[203,303,4] 0
pigjg[203,304,4] 0
pigjg[203,405,4] 0
pigjg[203,505,4] 0
pigjg[203,506,4] 0
pigjg[203,607,4] 0
pigjg[203,707,4] 0
pigjg[203,708,4] 0
pigjg[203,809,4] 0
pigjg[203,909,4] 0
pigjg[303,101,4] 0
pigjg[303,102,4] 0
pigjg[303,203,4] 2.0607691863813053e-09
pigjg[303,304,4] 0
pigjg[303,405,4] 0
pigjg[303,505,4] 0
pigjg[303,506,4] 0
pigjg[303,607,4] 0
pigjg[303,707,4] 0
pigjg[303,708,4] 0
pigjg[303,809,4] 0
pigjg[303,909,4] 0
pigjg[304,101,4] 0
pigjg[304,102,4] 0
pigjg[304,203,4] 0
pigjg[304,303,4] 0
pigjg[304,405,4] 0
pigjg[304,505,4] 0
pigjg[304,506,4] 0
pigjg[304,607,4] 5.92186628566876
pigjg[304,707,4] 0
pigjg[304,708,4] 0
pigjg[304,809,4] 0
pigjg[304,909,4] 0
pigjg[405,101,4] 0
pigjg[405,102,4] 0
pigjg[405,203,4] 0
pigjg[405,303,4] 0
pigjg[405,304,4] 0
pigjg[405,505,4] 1.0156674183920544e-01
pigjg[405,506,4] 0
pigjg[405,607,4] 0
pigjg[405,707,4] 0
pigjg[405,708,4] 0
pigjg[405,809,4] 0
pigjg[405,909,4] 0
pigjg[505,101,4] 0
pigjg[505,102,4] 0
pigjg[505,203,4] 0
pigjg[505,303,4] 0
pigjg[505,304,4] 0
pigjg[505,405,4] 0
pigjg[505,506,4] 0
pigjg[505,607,4] 0
pigjg[505,707,4] 1.4288757472474822e+00
pigjg[505,708,4] 0
pigjg[505,809,4] 0
pigjg[505,909,4] 0
pigjg[506,101,4] 0
pigjg[506,102,4] 0
pigjg[506,203,4] 0
pigjg[506,303,4] 1.2189244124834533e+00
pigjg[506,304,4] 0
pigjg[506,405,4] 0
pigjg[506,505,4] 0
pigjg[506,607,4] 0
pigjg[506,707,4] 0
pigjg[506,708,4] 0
pigjg[506,809,4] 0
pigjg[506,909,4] 0
pigjg[607,101,4] 0
pigjg[607,102,4] 0
pigjg[607,203,4] 0
pigjg[607,303,4] 0
pigjg[607,304,4] 0
pigjg[607,405,4] 1.2256447295877e-09
pigjg[607,505,4] 0
pigjg[607,506,4] 0
pigjg[607,707,4] 0
pigjg[607,708,4] 0
pigjg[607,809,4] 0
pigjg[607,909,4] 0
pigjg[707,101,4] 0
pigjg[707,102,4] 0
pigjg[707,203,4] 0
pigjg[707,303,4] 0
pigjg[707,304,4] 0
pigjg[707,405,4] 0
pigjg[707,505,4] 0
pigjg[707,506,4] 0
pigjg[707,607,4] 0
pigjg[707,708,4] 0
pigjg[707,809,4] 3.1126221278998750e-09
pigjg[707,909,4] 0
pigjg[708,101,4] 0
pigjg[708,102,4] 0
pigjg[708,203,4] 0
pigjg[708,303,4] 0
pigjg[708,304,4] 0
pigjg[708,405,4] 0
pigjg[708,505,4] 0
pigjg[708,506,4] 1.2254090775155463e-09
pigjg[708,607,4] 0
pigjg[708,707,4] 0
pigjg[708,809,4] 0
pigjg[708,909,4] 0
pigjg[809,101,4] 0
pigjg[809,102,4] 0
pigjg[809,203,4] 0
pigjg[809,303,4] 0
pigjg[809,304,4] 0
pigjg[809,405,4] 0
pigjg[809,505,4] 0
pigjg[809,506,4] 0
pigjg[809,607,4] 0
pigjg[809,707,4] 0
pigjg[809,708,4] 0
pigjg[809,909,4] 3.3784306238886304e-09
pigjg[909,101,4] 0
pigjg[909,102,4] 0
pigjg[909,203,4] 0
pigjg[909,303,4] 0
pigjg[909,304,4] 0
pigjg[909,405,4] 0
pigjg[909,505,4] 0
pigjg[909,506,4] 0
pigjg[909,607,4] 0
pigjg[909,707,4] 0
pigjg[909,708,4] 2.4609189244259642e-09
pigjg[909,809,4] 0
Rig[101,4,0] 5.9878084792744630e+01
Rig[101,4,1] 5.0548956969358983e+01
Rig[102,4,0] 5.6170291929363344e+01
Rig[102,4,1] 50.5127477148044
Rig[203,4,0] 5.9351953696529108e+01
Rig[203,4,1] 5.1319129054203756e+01
Rig[303,4,0] 5.5163335169154607e+01
Rig[303,4,1] 5.1466607021164471e+01
Rig[304,4,0] 5.4065602061816762e+01
Rig[304,4,1] 51.8558801198694
Rig[405,4,0] 6.1207889644104185e+01
Rig[405,4,1] 5.3059587197761289e+01
Rig[505,4,0] 6.1042516428723786e+01
Rig[505,4,1] 53.0437438152175
Rig[506,4,0] 5.3863336069060736e+01
Rig[506,4,1] 5.4104013949893776e+01
Rig[607,4,0] 6.0065254809217294e+01
Rig[607,4,1] 5.4086166673229549e+01
Rig[707,4,0] 6.0065254808137979e+01
Rig[707,4,1] 5.4086166673429204e+01
Rig[708,4,0] 5.4700349917121990e+01
Rig[708,4,1] 55.0275225732833
Rig[809,4,0] 6.0065254807204234e+01
Rig[809,4,1] 5.4086166675862408e+01
Rig[909,4,0] 5.9438441501782563e+01
Rig[909,4,1] 5.4937367404410445e+01
rhoig[101,4] 1.4938450476620346e-09
rhoig[102,4] 0.999999999547569
rhoig[203,4] 2.4114399366226280e-10
rhoig[303,4] 7.6339099727482562e-01
rhoig[304,4] 6.1560467281107378e-01
rhoig[405,4] 1.6017409620872058e-10
rhoig[505,4] 2.4244085007495642e-02
rhoig[506,4] 1.6920154166655266e-10
rhoig[607,4] 1.9205970147595508e-10
rhoig[707,4] 1.3869794202037156e-10
rhoig[708,4] 2.0480683815549128e-10
rhoig[809,4] 0.999999997138552
rhoig[909,4] 3.37536221195478e-10
Lig[101,4,0] 5.6170291931596694e+01
Lig[101,4,1] 5.0512747714363776e+01
Lig[102,4,0] 5.4230400331317853e+01
Lig[102,4,1] 5.1353914953347264e+01
Lig[203,4,0] 5.9878084796486341e+01
Lig[203,4,1] 50.5489569720429
Lig[303,4,0] 5.9351953694927033e+01
Lig[303,4,1] 5.1319129054441426e+01
Lig[304,4,0] 5.4386711791255244e+01
Lig[304,4,1] 5.2406092422080732e+01
Lig[405,4,0] 6.1111996005464377e+01
Lig[405,4,1] 5.2969660137253165e+01
Lig[505,4,0] 6.1042516428954684e+01
Lig[505,4,1] 5.3043743815239623e+01
Lig[506,4,0] 5.4386711793081595e+01
Lig[506,4,1] 5.2406092425434167e+01
Lig[607,4,0] 6.1207889644096042e+01
Lig[607,4,1] 5.3059587198314468e+01
Lig[707,4,0] 6.0065254808210739e+01
Lig[707,4,1] 5.4086166673428991e+01
Lig[708,4,0] 5.3863336069196890e+01
Lig[708,4,1] 5.4104013950429042e+01
Lig[809,4,0] 5.9438441504383064e+01
Lig[809,4,1] 5.4937367403020538e+01
Lig[909,4,0] 5.4700349919074142e+01
Lig[909,4,1] 5.5027522573438546e+01
landaig[101,4] 9.9999999967917574e-01
landaig[102,4] 0.158470333311719
landaig[203,4] 9.9999999658538741e-01
landaig[303,4] 2.6886937121162191e-10
landaig[304,4] 3.5879779147762747e-09
landaig[405,4] 5.1668614447848427e-02
landaig[505,4] 2.4244084973645386e-02
landaig[506,4] 9.9999999991363708e-01
landaig[607,4] 9.9999999973269382e-01
landaig[707,4] 1.2687451089732349e-10
landaig[708,4] 9.9999999973153564e-01
landaig[809,4] 1.5971437505868380e-09
landaig[909,4] 9.9999999962415131e-01
minig[101,4] 9.9999999818521923e-01
minig[102,4] 0
minig[203,4] 9.9999999634424341e-01
minig[303,4] 0
minig[304,4] 0
minig[405,4] 5.1668614287674330e-02
minig[505,4] 0
minig[506,4] 9.9999999974443554e-01
minig[607,4] 9.9999999954063412e-01
minig[707,4] 0
minig[708,4] 9.9999999952672880e-01
minig[809,4] 0
minig[909,4] 9.9999999928655170e-01
maxig[101,4] 0
maxig[102,4] 8.4152966623585412e-01
maxig[203,4] 0
maxig[303,4] 7.6339099700602320e-01
maxig[304,4] 6.1560466922309887e-01
maxig[405,4] 0
maxig[505,4] 3.3850255931611173e-11
maxig[506,4] 0
maxig[607,4] 0
maxig[707,4] 1.1667966861487410e-11
maxig[708,4] 0
maxig[809,4] 9.9999999554141117e-01
maxig[909,4] 0
entryig[101,4] 1
entryig[102,4] 0
entryig[203,4] 1
entryig[303,4] 0
entryig[304,4] 0
entryig[405,4] 1
entryig[505,4] 0
entryig[506,4] 1
entryig[607,4] 1
entryig[707,4] 0
entryig[708,4] 1
entryig[809,4] 0
entryig[909,4] 1
muig[101,4] 1
muig[102,4] 1
muig[203,4] 0
muig[303,4] 1
muig[304,4] 1
muig[405,4] 0
muig[505,4] 0
muig[506,4] 0
muig[607,4] 0
muig[707,4] 1
muig[708,4] 0
muig[809,4] 1
muig[909,4] 1
pig[101,4] 9.9999999818521923e-01
pig[102,4] 8.4152966623585412e-01
pig[203,4] 0
pig[303,4] 7.6339099700602320e-01
pig[304,4] 6.1560466922309887e-01
pig[405,4] 0
pig[505,4] 0
pig[506,4] 0
pig[607,4] 0
pig[707,4] 1.1667966861487410e-11
pig[708,4] 0
pig[809,4] 9.9999999554141117e-01
pig[909,4] 9.9999999928655170e-01
alphaig[101,4] 9.9999999818521923e-01
alphaig[102,4] 8.4152966623585412e-01
alphaig[203,4] 9.9999999634424341e-01
alphaig[303,4] 7.6339099700602320e-01
alphaig[304,4] 6.1560466922309887e-01
alphaig[405,4] 5.1668614287674330e-02
alphaig[505,4] 3.3850255931611173e-11
alphaig[506,4] 9.9999999974443554e-01
alphaig[607,4] 9.9999999954063412e-01
alphaig[707,4] 1.1667966861487410e-11
alphaig[708,4] 9.9999999952672880e-01
alphaig[809,4] 9.9999999554141117e-01
alphaig[909,4] 9.9999999928655170e-01
